%circuits=[|1,1|2,2|3,3|2,1|4,5|1,2|1,1|2,2|3,3|2,1|4,5|1,2|1,1|2,2|3,3|2,1|4,5|1,2|];
%circuitX=[1,2,3,2,4,1,1,2,3,2,4,1,1,2,3,2,4,1];
%circuitY=[1,2,3,1,5,2,1,2,3,1,5,2,1,2,3,1,5,2];
%num_circuits = 18;
%width=4;

circuitX=[1,3,3,2,3,4,2,3,4,5,4,3,2,1,2,3,4,5,4,3,4,3,2,1,2,3,4,5,4,3];
circuitY=[1,2,3,4,1,2,3,2,4,5,3,2,1,1,1,2,3,2,4,3,2,3,4,5,6,7,8,9,8,6];
num_circuits = 30;
width=25;